
Gurobi 9.1.2 (linux64) logging started Thu Apr 14 18:37:28 2022

Changed value of parameter LogFile to ls_sym_v-(1, 3).log
   Prev:   Default: 
Changed value of parameter MIPFocus to 1
   Prev: 0  Min: 0  Max: 3  Default: 0
Changed value of parameter TimeLimit to 10800.0
   Prev: inf  Min: 0.0  Max: inf  Default: inf
Warning: variable name "X[(1, 0),(3, 0)]" has a space
Warning: constraint name "flow-constr-t0-v(2, 1)" has a space
Warning: to let Gurobi read it back, use rlp format
Gurobi Optimizer version 9.1.2 build v9.1.2rc0 (linux64)
Thread count: 32 physical cores, 64 logical processors, using up to 32 threads
Optimize a model with 4823 rows, 4352 columns and 16536 nonzeros
Model fingerprint: 0x5592f72b
Variable types: 512 continuous, 3840 integer (3840 binary)
Coefficient statistics:
  Matrix range     [1e+00, 7e+04]
  Objective range  [1e-01, 1e-01]
  Bounds range     [1e+00, 3e+04]
  RHS range        [1e+00, 7e+04]
Presolve removed 371 rows and 392 columns
Presolve time: 0.09s
Presolved: 4452 rows, 3960 columns, 22698 nonzeros
Variable types: 512 continuous, 3448 integer (3448 binary)

Root relaxation: objective 6.400000e+01, 150 iterations, 0.00 seconds

    Nodes    |    Current Node    |     Objective Bounds      |     Work
 Expl Unexpl |  Obj  Depth IntInf | Incumbent    BestBd   Gap | It/Node Time

     0     0   64.00000    0   28          -   64.00000      -     -    0s
H    0     0                    8376.4249996   64.00000  99.2%     -    0s
H    0     0                    8376.1749996   64.00000  99.2%     -    0s
     0     0   64.00000    0   64 8376.17500   64.00000  99.2%     -    0s
H    0     0                     213.2500000   64.00000  70.0%     -    0s
H    0     0                     166.6250000   64.00000  61.6%     -    0s
     0     0   64.00000    0   69  166.62500   64.00000  61.6%     -    0s
H    0     0                     130.9375000   64.00000  51.1%     -    0s
H    0     0                     101.5937500   64.00000  37.0%     -    0s
     0     0   64.00000    0   34  101.59375   64.00000  37.0%     -    0s
H    0     0                      95.1176471   64.00000  32.7%     -    0s
     0     0   64.00000    0   24   95.11765   64.00000  32.7%     -    1s
H    0     0                      88.0000000   64.00000  27.3%     -    1s
     0     0   64.00000    0   29   88.00000   64.00000  27.3%     -    1s
     0     0   64.00000    0   40   88.00000   64.00000  27.3%     -    1s
     0     0   64.00000    0   59   88.00000   64.00000  27.3%     -    1s
     0     0   64.00000    0   38   88.00000   64.00000  27.3%     -    1s
H    0     0                      85.0000000   64.00000  24.7%     -    1s
     0     2   64.00000    0   38   85.00000   64.00000  24.7%     -    1s
H    1     4                      79.1250000   64.00000  19.1%   746    2s
H    2     4                      78.7187500   64.00000  18.7%   374    2s
H   31    64                      76.7500000   64.00000  16.6%  42.3    3s
H   32    64                      76.7343750   64.00000  16.6%  41.0    3s
H   36    64                      76.6875000   64.00000  16.5%  36.6    3s
H   38    64                      76.1357143   64.00000  15.9%  34.7    3s
H   61    64                      76.1190476   64.00000  15.9%  24.3    3s
H   95   128                      74.0000000   64.00000  13.5%  16.3    3s
H  112   128                      73.8125000   64.00000  13.3%  14.0    3s
H  124   128                      73.7500000   64.00000  13.2%  12.9    3s
H  159   190                      71.2166667   64.00000  10.1%  10.5    4s
H  174   190                      70.7500000   64.00000  9.54%   9.7    4s
H  191   222                      70.3750000   64.00000  9.06%   8.9    5s
H  192   222                      70.1250000   64.00000  8.73%   8.9    5s
H  195   222                      69.8750000   64.00000  8.41%   8.8    5s
H  223   254                      69.5625000   64.00000  8.00%   7.9    6s
H  224   254                      69.5000000   64.00000  7.91%   7.9    6s
H  225   254                      68.9375000   64.00000  7.16%   7.9    6s
H  229   254                      68.5000000   64.00000  6.57%   7.7    6s
H  232   254                      68.1562500   64.00000  6.10%   7.7    6s
H  233   254                      68.1250000   64.00000  6.06%   7.6    6s
H  255   286                      68.0000000   64.00000  5.88%   7.1    8s
H  286   286                      67.6250000   64.00000  5.36%   6.9    8s
H  300   787                      67.2500000   64.00000  4.83%   6.6    9s
H  816   819                      66.9333333   64.00000  4.38%   4.4   11s
H  818   819                      66.6250000   64.00000  3.94%   4.4   11s
H  819   819                      66.2500000   64.00000  3.40%   4.4   11s
H  874  1607                      65.3977273   64.00000  2.14%   4.5   12s
H 1738  3940                      65.3257576   64.00000  2.03%  11.5   14s
H 1800  3940                      65.1111111   64.00000  1.71%  12.1   14s
H 2621  3940                      65.0000000   64.00000  1.54%  21.3   14s
  4702  5193   64.00000  183   79   65.00000   64.00000  1.54%  28.3   15s
  6791  5293   64.00000   16  123   65.00000   64.00000  1.54%  35.9   24s
H 6795  5031                      64.7916667   64.00000  1.22%  35.9   24s
H 6919  4871                      64.6250000   64.00000  0.97%  35.5   25s
H 6922  4636                      64.4166667   64.00000  0.65%  35.6   25s
H 6953  4502                      64.1250000   64.00000  0.19%  35.5   25s
H 7075  4282                      64.0000000   64.00000  0.00%  35.2   27s

Cutting planes:
  Learned: 9
  Gomory: 3
  Cover: 92
  Implied bound: 141
  Clique: 74
  MIR: 68
  Flow cover: 129
  GUB cover: 9
  Zero half: 1
  RLT: 26
  Relax-and-lift: 177

Explored 7083 nodes (259925 simplex iterations) in 27.82 seconds
Thread count was 32 (of 64 available processors)

Solution count 10: 64 64.125 64.4167 ... 66.25

Optimal solution found (tolerance 1.00e-04)
Best objective 6.400000000000e+01, best bound 6.400000000000e+01, gap 0.0000%
